SAT/3837993_18.param
$ LBS instance with n = 18, seed = 3837993
letting cards be [44,10,50,12,19,9,8,21,25,38,48,51,3,27,13,22,1,17]
